data/processed_heuristic-threshold/instances/1/8/ds_819_courier_1656/pairwise.tsp
NAME: ds_819_courier_1656
TYPE: TSP
COMMENT: nil
DIMENSION: 9
EDGE_WEIGHT_TYPE: EXPLICIT
EDGE_WEIGHT_FORMAT: FULL_MATRIX
EDGE_WEIGHT_SECTION
9999 49 3319 3216 40 3498 3281 5741 2542 
49 9999 3348 3250 10 3529 3320 5757 2582 
3319 3348 9999 460 3340 223 810 2753 1131 
3216 3250 460 9999 3242 434 359 3140 793 
40 10 3340 3242 9999 3521 3310 5751 2572 
3498 3529 223 434 3521 9999 733 2706 1202 
3281 3320 810 359 3310 733 9999 3397 747 
5741 5757 2753 3140 5751 2706 3397 9999 3884 
2542 2582 1131 793 2572 1202 747 3884 9999 
