data/processed_heuristic-threshold/instances/1/8/ds_819_courier_1656/pairwise.sol
9
0 8 6 3 2 5 7 1 4 
